40
1 0 22
2 0 9
2 1 1
3 0 26
3 1 12
3 2 21
4 0 34
4 1 29
4 2 3
4 3 37
5 0 5
5 1 34
5 2 22
5 3 2
5 4 19
6 0 3
6 1 26
6 2 37
6 3 4
6 4 36
6 5 17
7 0 40
7 1 5
7 2 50
7 3 7
7 4 20
7 5 46
7 6 47
8 0 24
8 1 3
8 2 24
8 3 22
8 4 13
8 5 9
8 6 26
8 7 48
9 0 45
9 1 41
9 2 13
9 3 23
9 4 22
9 5 27
9 6 32
9 7 33
9 8 10
10 0 25
10 1 28
10 2 31
10 3 13
10 4 7
10 5 50
10 6 30
10 7 40
10 8 13
10 9 29
11 0 31
11 1 18
11 2 4
11 3 15
11 4 39
11 5 16
11 6 38
11 7 19
11 8 46
11 9 6
11 10 27
12 0 20
12 1 31
12 2 9
12 3 20
12 4 12
12 5 38
12 6 26
12 7 29
12 8 21
12 9 25
12 10 21
12 11 3
13 0 50
13 1 42
13 2 36
13 3 10
13 4 2
13 5 26
13 6 27
13 7 19
13 8 5
13 9 34
13 10 35
13 11 27
13 12 36
14 0 38
14 1 37
14 2 23
14 3 23
14 4 25
14 5 37
14 6 31
14 7 4
14 8 36
14 9 5
14 10 1
14 11 3
14 12 37
14 13 47
15 0 43
15 1 12
15 2 15
15 3 6
15 4 9
15 5 29
15 6 15
15 7 24
15 8 12
15 9 14
15 10 50
15 11 17
15 12 31
15 13 24
15 14 10
16 0 2
16 1 26
16 2 32
16 3 33
16 4 10
16 5 8
16 6 9
16 7 50
16 8 44
16 9 35
16 10 41
16 11 16
16 12 47
16 13 7
16 14 46
16 15 38
17 0 8
17 1 34
17 2 38
17 3 34
17 4 47
17 5 41
17 6 20
17 7 38
17 8 41
17 9 21
17 10 31
17 11 38
17 12 42
17 13 37
17 14 12
17 15 25
17 16 37
18 0 44
18 1 21
18 2 4
18 3 15
18 4 8
18 5 16
18 6 38
18 7 29
18 8 31
18 9 38
18 10 46
18 11 27
18 12 18
18 13 38
18 14 42
18 15 33
18 16 22
18 17 28
19 0 19
19 1 14
19 2 1
19 3 45
19 4 40
19 5 36
19 6 14
19 7 3
19 8 16
19 9 38
19 10 30
19 11 42
19 12 48
19 13 34
19 14 17
19 15 24
19 16 4
19 17 3
19 18 33
20 0 4
20 1 17
20 2 6
20 3 28
20 4 8
20 5 11
20 6 15
20 7 4
20 8 29
20 9 18
20 10 3
20 11 6
20 12 21
20 13 48
20 14 25
20 15 27
20 16 5
20 17 29
20 18 9
20 19 22
21 0 33
21 1 32
21 2 3
21 3 33
21 4 42
21 5 32
21 6 25
21 7 7
21 8 21
21 9 43
21 10 46
21 11 21
21 12 13
21 13 4
21 14 21
21 15 27
21 16 28
21 17 33
21 18 23
21 19 13
21 20 24
22 0 33
22 1 14
22 2 4
22 3 18
22 4 21
22 5 49
22 6 29
22 7 33
22 8 18
22 9 13
22 10 13
22 11 46
22 12 42
22 13 1
22 14 36
22 15 47
22 16 43
22 17 36
22 18 32
22 19 13
22 20 20
22 21 1
23 0 22
23 1 22
23 2 44
23 3 2
23 4 8
23 5 43
23 6 7
23 7 9
23 8 49
23 9 44
23 10 40
23 11 37
23 12 31
23 13 43
23 14 45
23 15 20
23 16 18
23 17 6
23 18 13
23 19 14
23 20 26
23 21 36
23 22 40
24 0 22
24 1 27
24 2 15
24 3 50
24 4 45
24 5 2
24 6 24
24 7 7
24 8 16
24 9 32
24 10 7
24 11 36
24 12 16
24 13 13
24 14 26
24 15 34
24 16 36
24 17 5
24 18 33
24 19 5
24 20 23
24 21 35
24 22 1
24 23 14
25 0 39
25 1 43
25 2 48
25 3 42
25 4 48
25 5 1
25 6 33
25 7 41
25 8 44
25 9 25
25 10 28
25 11 3
25 12 41
25 13 47
25 14 15
25 15 30
25 16 38
25 17 22
25 18 46
25 19 22
25 20 32
25 21 27
25 22 39
25 23 4
25 24 32
26 0 48
26 1 16
26 2 43
26 3 11
26 4 29
26 5 32
26 6 45
26 7 36
26 8 21
26 9 43
26 10 42
26 11 31
26 12 14
26 13 4
26 14 15
26 15 32
26 16 17
26 17 4
26 18 15
26 19 30
26 20 7
26 21 36
26 22 4
26 23 18
26 24 25
26 25 28
27 0 16
27 1 28
27 2 12
27 3 34
27 4 26
27 5 43
27 6 50
27 7 4
27 8 3
27 9 39
27 10 21
27 11 26
27 12 7
27 13 25
27 14 20
27 15 39
27 16 38
27 17 14
27 18 8
27 19 17
27 20 21
27 21 5
27 22 32
27 23 3
27 24 50
27 25 44
27 26 9
28 0 39
28 1 12
28 2 22
28 3 16
28 4 14
28 5 37
28 6 43
28 7 39
28 8 18
28 9 13
28 10 46
28 11 24
28 12 7
28 13 43
28 14 48
28 15 3
28 16 23
28 17 7
28 18 15
28 19 42
28 20 10
28 21 28
28 22 42
28 23 28
28 24 41
28 25 36
28 26 35
28 27 33
29 0 36
29 1 50
29 2 48
29 3 50
29 4 32
29 5 42
29 6 41
29 7 45
29 8 38
29 9 44
29 10 42
29 11 23
29 12 3
29 13 16
29 14 3
29 15 1
29 16 38
29 17 23
29 18 42
29 19 27
29 20 26
29 21 23
29 22 14
29 23 7
29 24 6
29 25 15
29 26 13
29 27 3
29 28 13
30 0 41
30 1 14
30 2 45
30 3 19
30 4 21
30 5 49
30 6 34
30 7 39
30 8 19
30 9 40
30 10 22
30 11 23
30 12 18
30 13 20
30 14 1
30 15 23
30 16 4
30 17 20
30 18 19
30 19 23
30 20 30
30 21 44
30 22 41
30 23 6
30 24 34
30 25 39
30 26 36
30 27 21
30 28 39
30 29 34
31 0 28
31 1 37
31 2 2
31 3 4
31 4 36
31 5 38
31 6 14
31 7 3
31 8 1
31 9 5
31 10 36
31 11 28
31 12 48
31 13 33
31 14 42
31 15 10
31 16 22
31 17 33
31 18 49
31 19 6
31 20 2
31 21 6
31 22 14
31 23 8
31 24 24
31 25 12
31 26 5
31 27 24
31 28 30
31 29 42
31 30 11
32 0 28
32 1 48
32 2 49
32 3 4
32 4 49
32 5 7
32 6 49
32 7 13
32 8 22
32 9 12
32 10 10
32 11 38
32 12 4
32 13 48
32 14 33
32 15 39
32 16 42
32 17 22
32 18 25
32 19 8
32 20 31
32 21 43
32 22 9
32 23 20
32 24 20
32 25 14
32 26 27
32 27 19
32 28 27
32 29 7
32 30 13
32 31 47
33 0 45
33 1 38
33 2 19
33 3 34
33 4 31
33 5 17
33 6 43
33 7 8
33 8 35
33 9 30
33 10 19
33 11 4
33 12 24
33 13 3
33 14 45
33 15 50
33 16 49
33 17 13
33 18 26
33 19 5
33 20 29
33 21 39
33 22 40
33 23 21
33 24 13
33 25 43
33 26 27
33 27 10
33 28 39
33 29 35
33 30 39
33 31 48
33 32 19
34 0 40
34 1 14
34 2 13
34 3 30
34 4 19
34 5 46
34 6 38
34 7 40
34 8 3
34 9 44
34 10 30
34 11 2
34 12 35
34 13 10
34 14 20
34 15 28
34 16 12
34 17 17
34 18 15
34 19 13
34 20 23
34 21 50
34 22 3
34 23 19
34 24 24
34 25 39
34 26 46
34 27 40
34 28 10
34 29 45
34 30 35
34 31 22
34 32 45
34 33 1
35 0 28
35 1 30
35 2 45
35 3 35
35 4 18
35 5 19
35 6 49
35 7 2
35 8 15
35 9 23
35 10 39
35 11 39
35 12 27
35 13 45
35 14 26
35 15 32
35 16 47
35 17 28
35 18 44
35 19 41
35 20 44
35 21 31
35 22 25
35 23 47
35 24 12
35 25 8
35 26 44
35 27 34
35 28 30
35 29 28
35 30 21
35 31 10
35 32 17
35 33 25
35 34 35
36 0 40
36 1 22
36 2 40
36 3 37
36 4 24
36 5 38
36 6 49
36 7 14
36 8 29
36 9 22
36 10 42
36 11 35
36 12 20
36 13 26
36 14 9
36 15 4
36 16 23
36 17 49
36 18 7
36 19 9
36 20 1
36 21 41
36 22 25
36 23 46
36 24 46
36 25 40
36 26 14
36 27 2
36 28 37
36 29 1
36 30 33
36 31 23
36 32 3
36 33 19
36 34 17
36 35 19
37 0 6
37 1 46
37 2 24
37 3 48
37 4 14
37 5 2
37 6 49
37 7 21
37 8 2
37 9 25
37 10 41
37 11 38
37 12 23
37 13 31
37 14 33
37 15 16
37 16 26
37 17 50
37 18 40
37 19 3
37 20 12
37 21 41
37 22 24
37 23 18
37 24 3
37 25 14
37 26 46
37 27 16
37 28 38
37 29 2
37 30 19
37 31 15
37 32 27
37 33 33
37 34 37
37 35 49
37 36 26
38 0 3
38 1 38
38 2 6
38 3 27
38 4 1
38 5 18
38 6 49
38 7 44
38 8 48
38 9 24
38 10 41
38 11 28
38 12 21
38 13 20
38 14 16
38 15 17
38 16 8
38 17 24
38 18 27
38 19 15
38 20 41
38 21 44
38 22 31
38 23 36
38 24 25
38 25 26
38 26 44
38 27 48
38 28 25
38 29 24
38 30 31
38 31 4
38 32 24
38 33 32
38 34 32
38 35 35
38 36 24
38 37 43
39 0 38
39 1 18
39 2 32
39 3 39
39 4 23
39 5 2
39 6 32
39 7 12
39 8 31
39 9 4
39 10 49
39 11 9
39 12 50
39 13 19
39 14 47
39 15 49
39 16 25
39 17 26
39 18 31
39 19 37
39 20 9
39 21 24
39 22 13
39 23 33
39 24 43
39 25 46
39 26 15
39 27 12
39 28 44
39 29 8
39 30 11
39 31 47
39 32 38
39 33 20
39 34 21
39 35 34
39 36 23
39 37 41
39 38 43
